NAME: FLS3_731.hcp
COMMENT: 
TYPE: HCP
DIMENSION: 731
EDGE_DATA_FORMAT : EDGE_LIST
EDGE_DATA_SECTION
1 2
1 3
1 21
1 22
2 1
2 3
2 23
2 38
3 1
3 2
3 53
3 54
4 5
4 6
4 55
4 70
5 4
5 6
5 85
5 86
6 4
6 5
6 87
6 102
7 8
7 16
7 22
7 118
8 7
8 9
8 10
8 22
9 8
9 10
9 14
9 19
10 8
10 9
10 11
10 22
11 10
11 12
11 17
11 22
12 11
12 13
12 21
12 22
13 12
13 14
13 15
13 22
14 9
14 13
14 15
14 19
15 13
15 14
15 16
15 22
16 7
16 15
16 17
16 22
17 11
17 16
17 18
17 22
18 17
18 19
18 20
18 22
19 9
19 14
19 18
19 20
20 18
20 19
20 21
20 22
21 1
21 12
21 20
21 22
22 1
22 7
22 8
22 10
22 11
22 12
22 13
22 15
22 16
22 17
22 18
22 20
22 21
22 322
23 2
23 24
23 32
23 38
24 23
24 25
24 26
24 38
25 24
25 26
25 30
25 35
26 24
26 25
26 27
26 38
27 26
27 28
27 33
27 38
28 27
28 29
28 37
28 38
29 28
29 30
29 31
29 38
30 25
30 29
30 31
30 35
31 29
31 30
31 32
31 38
32 23
32 31
32 33
32 38
33 27
33 32
33 34
33 38
34 33
34 35
34 36
34 38
35 25
35 30
35 34
35 36
36 34
36 35
36 37
36 38
37 28
37 36
37 38
37 117
38 2
38 23
38 24
38 26
38 27
38 28
38 29
38 31
38 32
38 33
38 34
38 36
38 37
38 149
39 40
39 48
39 54
39 305
40 39
40 41
40 42
40 54
41 40
41 42
41 46
41 51
42 40
42 41
42 43
42 54
43 42
43 44
43 49
43 54
44 43
44 45
44 53
44 54
45 44
45 46
45 47
45 54
46 41
46 45
46 47
46 51
47 45
47 46
47 48
47 54
48 39
48 47
48 49
48 54
49 43
49 48
49 50
49 54
50 49
50 51
50 52
50 54
51 41
51 46
51 50
51 52
52 50
52 51
52 53
52 54
53 3
53 44
53 52
53 54
54 3
54 39
54 40
54 42
54 43
54 44
54 45
54 47
54 48
54 49
54 50
54 52
54 53
54 134
55 4
55 56
55 64
55 70
56 55
56 57
56 58
56 70
57 56
57 58
57 62
57 67
58 56
58 57
58 59
58 70
59 58
59 60
59 65
59 70
60 59
60 61
60 69
60 70
61 60
61 62
61 63
61 70
62 57
62 61
62 63
62 67
63 61
63 62
63 64
63 70
64 55
64 63
64 65
64 70
65 59
65 64
65 66
65 70
66 65
66 67
66 68
66 70
67 57
67 62
67 66
67 68
68 66
68 67
68 69
68 70
69 60
69 68
69 70
69 731
70 4
70 55
70 56
70 58
70 59
70 60
70 61
70 63
70 64
70 65
70 66
70 68
70 69
70 134
71 72
71 80
71 86
71 235
72 71
72 73
72 74
72 86
73 72
73 74
73 78
73 83
74 72
74 73
74 75
74 86
75 74
75 76
75 81
75 86
76 75
76 77
76 85
76 86
77 76
77 78
77 79
77 86
78 73
78 77
78 79
78 83
79 77
79 78
79 80
79 86
80 71
80 79
80 81
80 86
81 75
81 80
81 82
81 86
82 81
82 83
82 84
82 86
83 73
83 78
83 82
83 84
84 82
84 83
84 85
84 86
85 5
85 76
85 84
85 86
86 5
86 71
86 72
86 74
86 75
86 76
86 77
86 79
86 80
86 81
86 82
86 84
86 85
86 133
87 6
87 88
87 96
87 102
88 87
88 89
88 90
88 102
89 88
89 90
89 94
89 99
90 88
90 89
90 91
90 102
91 90
91 92
91 97
91 102
92 91
92 93
92 101
92 102
93 92
93 94
93 95
93 102
94 89
94 93
94 95
94 99
95 93
95 94
95 96
95 102
96 87
96 95
96 97
96 102
97 91
97 96
97 98
97 102
98 97
98 99
98 100
98 102
99 89
99 94
99 98
99 100
100 98
100 99
100 101
100 102
101 92
101 100
101 102
101 150
102 6
102 87
102 88
102 90
102 91
102 92
102 93
102 95
102 96
102 97
102 98
102 100
102 101
102 323
103 104
103 112
103 118
103 321
104 103
104 105
104 106
104 118
105 104
105 106
105 110
105 115
106 104
106 105
106 107
106 118
107 106
107 108
107 113
107 118
108 107
108 109
108 117
108 118
109 108
109 110
109 111
109 118
110 105
110 109
110 111
110 115
111 109
111 110
111 112
111 118
112 103
112 111
112 113
112 118
113 107
113 112
113 114
113 118
114 113
114 115
114 116
114 118
115 105
115 110
115 114
115 116
116 114
116 115
116 117
116 118
117 37
117 108
117 116
117 118
118 7
118 103
118 104
118 106
118 107
118 108
118 109
118 111
118 112
118 113
118 114
118 116
118 117
118 236
119 120
119 128
119 134
119 343
120 119
120 121
120 122
120 134
121 120
121 122
121 126
121 131
122 120
122 121
122 123
122 134
123 122
123 124
123 129
123 134
124 123
124 125
124 133
124 134
125 124
125 126
125 127
125 134
126 121
126 125
126 127
126 131
127 125
127 126
127 128
127 134
128 119
128 127
128 129
128 134
129 123
129 128
129 130
129 134
130 129
130 131
130 132
130 134
131 121
131 126
131 130
131 132
132 130
132 131
132 133
132 134
133 86
133 124
133 132
133 134
134 54
134 70
134 119
134 120
134 122
134 123
134 124
134 125
134 127
134 128
134 129
134 130
134 132
134 133
135 136
135 144
135 150
135 322
136 135
136 137
136 138
136 150
137 136
137 138
137 142
137 147
138 136
138 137
138 139
138 150
139 138
139 140
139 145
139 150
140 139
140 141
140 149
140 150
141 140
141 142
141 143
141 150
142 137
142 141
142 143
142 147
143 141
143 142
143 144
143 150
144 135
144 143
144 145
144 150
145 139
145 144
145 146
145 150
146 145
146 147
146 148
146 150
147 137
147 142
147 146
147 148
148 146
148 147
148 149
148 150
149 38
149 140
149 148
149 150
150 101
150 135
150 136
150 138
150 139
150 140
150 141
150 143
150 144
150 145
150 146
150 148
150 149
150 236
151 153
151 155
151 170
151 171
152 154
152 171
152 220
152 236
153 151
153 155
153 172
153 187
154 152
154 188
154 204
154 236
155 151
155 153
155 202
155 203
156 157
156 165
156 171
156 219
157 156
157 158
157 159
157 171
158 157
158 159
158 163
158 168
159 157
159 158
159 160
159 171
160 159
160 161
160 166
160 171
161 160
161 162
161 170
161 171
162 161
162 163
162 164
162 171
163 158
163 162
163 164
163 168
164 162
164 163
164 165
164 171
165 156
165 164
165 166
165 171
166 160
166 165
166 167
166 171
167 166
167 168
167 169
167 171
168 158
168 163
168 167
168 169
169 167
169 168
169 170
169 171
170 151
170 161
170 169
170 171
171 151
171 152
171 156
171 157
171 159
171 160
171 161
171 162
171 164
171 165
171 166
171 167
171 169
171 170
172 153
172 173
172 181
172 187
173 172
173 174
173 175
173 187
174 173
174 175
174 179
174 184
175 173
175 174
175 176
175 187
176 175
176 177
176 182
176 187
177 176
177 178
177 186
177 187
178 177
178 179
178 180
178 187
179 174
179 178
179 180
179 184
180 178
180 179
180 181
180 187
181 172
181 180
181 182
181 187
182 176
182 181
182 183
182 187
183 182
183 184
183 185
183 187
184 174
184 179
184 183
184 185
185 183
185 184
185 186
185 187
186 177
186 185
186 187
186 218
187 153
187 172
187 173
187 175
187 176
187 177
187 178
187 180
187 181
187 182
187 183
187 185
187 186
187 234
188 154
188 189
188 197
188 203
189 188
189 190
189 191
189 203
190 189
190 191
190 195
190 200
191 189
191 190
191 192
191 203
192 191
192 193
192 198
192 203
193 192
193 194
193 202
193 203
194 193
194 195
194 196
194 203
195 190
195 194
195 196
195 200
196 194
196 195
196 197
196 203
197 188
197 196
197 198
197 203
198 192
198 197
198 199
198 203
199 198
199 200
199 201
199 203
200 190
200 195
200 199
200 201
201 199
201 200
201 202
201 203
202 155
202 193
202 201
202 203
203 155
203 188
203 189
203 191
203 192
203 193
203 194
203 196
203 197
203 198
203 199
203 201
203 202
203 235
204 154
204 205
204 213
204 219
205 204
205 206
205 207
205 219
206 205
206 207
206 211
206 216
207 205
207 206
207 208
207 219
208 207
208 209
208 214
208 219
209 208
209 210
209 218
209 219
210 209
210 211
210 212
210 219
211 206
211 210
211 212
211 216
212 210
212 211
212 213
212 219
213 204
213 212
213 214
213 219
214 208
214 213
214 215
214 219
215 214
215 216
215 217
215 219
216 206
216 211
216 215
216 217
217 215
217 216
217 218
217 219
218 186
218 209
218 217
218 219
219 156
219 204
219 205
219 207
219 208
219 209
219 210
219 212
219 213
219 214
219 215
219 217
219 218
219 731
220 152
220 221
220 229
220 235
221 220
221 222
221 223
221 235
222 221
222 223
222 227
222 232
223 221
223 222
223 224
223 235
224 223
224 225
224 230
224 235
225 224
225 226
225 234
225 235
226 225
226 227
226 228
226 235
227 222
227 226
227 228
227 232
228 226
228 227
228 229
228 235
229 220
229 228
229 230
229 235
230 224
230 229
230 231
230 235
231 230
231 232
231 233
231 235
232 222
232 227
232 231
232 233
233 231
233 232
233 234
233 235
234 187
234 225
234 233
234 235
235 71
235 203
235 220
235 221
235 223
235 224
235 225
235 226
235 228
235 229
235 230
235 231
235 233
235 234
236 118
236 150
236 152
236 154
237 239
237 241
237 256
237 257
238 240
238 257
238 306
238 322
239 237
239 241
239 258
239 273
240 238
240 274
240 290
240 322
241 237
241 239
241 288
241 289
242 243
242 251
242 257
242 305
243 242
243 244
243 245
243 257
244 243
244 245
244 249
244 254
245 243
245 244
245 246
245 257
246 245
246 247
246 252
246 257
247 246
247 248
247 256
247 257
248 247
248 249
248 250
248 257
249 244
249 248
249 250
249 254
250 248
250 249
250 251
250 257
251 242
251 250
251 252
251 257
252 246
252 251
252 253
252 257
253 252
253 254
253 255
253 257
254 244
254 249
254 253
254 255
255 253
255 254
255 256
255 257
256 237
256 247
256 255
256 257
257 237
257 238
257 242
257 243
257 245
257 246
257 247
257 248
257 250
257 251
257 252
257 253
257 255
257 256
258 239
258 259
258 267
258 273
259 258
259 260
259 261
259 273
260 259
260 261
260 265
260 270
261 259
261 260
261 262
261 273
262 261
262 263
262 268
262 273
263 262
263 264
263 272
263 273
264 263
264 265
264 266
264 273
265 260
265 264
265 266
265 270
266 264
266 265
266 267
266 273
267 258
267 266
267 268
267 273
268 262
268 267
268 269
268 273
269 268
269 270
269 271
269 273
270 260
270 265
270 269
270 271
271 269
271 270
271 272
271 273
272 263
272 271
272 273
272 304
273 239
273 258
273 259
273 261
273 262
273 263
273 264
273 266
273 267
273 268
273 269
273 271
273 272
273 320
274 240
274 275
274 283
274 289
275 274
275 276
275 277
275 289
276 275
276 277
276 281
276 286
277 275
277 276
277 278
277 289
278 277
278 279
278 284
278 289
279 278
279 280
279 288
279 289
280 279
280 281
280 282
280 289
281 276
281 280
281 282
281 286
282 280
282 281
282 283
282 289
283 274
283 282
283 284
283 289
284 278
284 283
284 285
284 289
285 284
285 286
285 287
285 289
286 276
286 281
286 285
286 287
287 285
287 286
287 288
287 289
288 241
288 279
288 287
288 289
289 241
289 274
289 275
289 277
289 278
289 279
289 280
289 282
289 283
289 284
289 285
289 287
289 288
289 321
290 240
290 291
290 299
290 305
291 290
291 292
291 293
291 305
292 291
292 293
292 297
292 302
293 291
293 292
293 294
293 305
294 293
294 295
294 300
294 305
295 294
295 296
295 304
295 305
296 295
296 297
296 298
296 305
297 292
297 296
297 298
297 302
298 296
298 297
298 299
298 305
299 290
299 298
299 300
299 305
300 294
300 299
300 301
300 305
301 300
301 302
301 303
301 305
302 292
302 297
302 301
302 303
303 301
303 302
303 304
303 305
304 272
304 295
304 303
304 305
305 39
305 242
305 290
305 291
305 293
305 294
305 295
305 296
305 298
305 299
305 300
305 301
305 303
305 304
306 238
306 307
306 315
306 321
307 306
307 308
307 309
307 321
308 307
308 309
308 313
308 318
309 307
309 308
309 310
309 321
310 309
310 311
310 316
310 321
311 310
311 312
311 320
311 321
312 311
312 313
312 314
312 321
313 308
313 312
313 314
313 318
314 312
314 313
314 315
314 321
315 306
315 314
315 316
315 321
316 310
316 315
316 317
316 321
317 316
317 318
317 319
317 321
318 308
318 313
318 317
318 319
319 317
319 318
319 320
319 321
320 273
320 311
320 319
320 321
321 103
321 289
321 306
321 307
321 309
321 310
321 311
321 312
321 314
321 315
321 316
321 317
321 319
321 320
322 22
322 135
322 238
322 240
323 102
323 324
323 325
323 344
323 731
324 323
324 325
324 345
324 360
325 323
325 324
325 375
325 376
326 327
326 328
326 377
326 392
327 326
327 328
327 407
327 408
328 326
328 327
328 409
328 424
329 330
329 338
329 344
329 440
330 329
330 331
330 332
330 344
331 330
331 332
331 336
331 341
332 330
332 331
332 333
332 344
333 332
333 334
333 339
333 344
334 333
334 335
334 343
334 344
335 334
335 336
335 337
335 344
336 331
336 335
336 337
336 341
337 335
337 336
337 338
337 344
338 329
338 337
338 339
338 344
339 333
339 338
339 340
339 344
340 339
340 341
340 342
340 344
341 331
341 336
341 340
341 342
342 340
342 341
342 343
342 344
343 119
343 334
343 342
343 344
343 731
344 323
344 329
344 330
344 332
344 333
344 334
344 335
344 337
344 338
344 339
344 340
344 342
344 343
344 644
345 324
345 346
345 354
345 360
346 345
346 347
346 348
346 360
347 346
347 348
347 352
347 357
348 346
348 347
348 349
348 360
349 348
349 350
349 355
349 360
350 349
350 351
350 359
350 360
351 350
351 352
351 353
351 360
352 347
352 351
352 353
352 357
353 351
353 352
353 354
353 360
354 345
354 353
354 355
354 360
355 349
355 354
355 356
355 360
356 355
356 357
356 358
356 360
357 347
357 352
357 356
357 358
358 356
358 357
358 359
358 360
359 350
359 358
359 360
359 439
360 324
360 345
360 346
360 348
360 349
360 350
360 351
360 353
360 354
360 355
360 356
360 358
360 359
360 471
361 362
361 370
361 376
361 627
362 361
362 363
362 364
362 376
363 362
363 364
363 368
363 373
364 362
364 363
364 365
364 376
365 364
365 366
365 371
365 376
366 365
366 367
366 375
366 376
367 366
367 368
367 369
367 376
368 363
368 367
368 369
368 373
369 367
369 368
369 370
369 376
370 361
370 369
370 371
370 376
371 365
371 370
371 372
371 376
372 371
372 373
372 374
372 376
373 363
373 368
373 372
373 374
374 372
374 373
374 375
374 376
375 325
375 366
375 374
375 376
376 325
376 361
376 362
376 364
376 365
376 366
376 367
376 369
376 370
376 371
376 372
376 374
376 375
376 456
377 326
377 378
377 386
377 392
378 377
378 379
378 380
378 392
379 378
379 380
379 384
379 389
380 378
380 379
380 381
380 392
381 380
381 382
381 387
381 392
382 381
382 383
382 391
382 392
383 382
383 384
383 385
383 392
384 379
384 383
384 385
384 389
385 383
385 384
385 386
385 392
386 377
386 385
386 387
386 392
387 381
387 386
387 388
387 392
388 387
388 389
388 390
388 392
389 379
389 384
389 388
389 390
390 388
390 389
390 391
390 392
391 382
391 390
391 392
391 730
392 326
392 377
392 378
392 380
392 381
392 382
392 383
392 385
392 386
392 387
392 388
392 390
392 391
392 456
393 394
393 402
393 408
393 557
394 393
394 395
394 396
394 408
395 394
395 396
395 400
395 405
396 394
396 395
396 397
396 408
397 396
397 398
397 403
397 408
398 397
398 399
398 407
398 408
399 398
399 400
399 401
399 408
400 395
400 399
400 401
400 405
401 399
401 400
401 402
401 408
402 393
402 401
402 403
402 408
403 397
403 402
403 404
403 408
404 403
404 405
404 406
404 408
405 395
405 400
405 404
405 406
406 404
406 405
406 407
406 408
407 327
407 398
407 406
407 408
408 327
408 393
408 394
408 396
408 397
408 398
408 399
408 401
408 402
408 403
408 404
408 406
408 407
408 455
409 328
409 410
409 418
409 424
410 409
410 411
410 412
410 424
411 410
411 412
411 416
411 421
412 410
412 411
412 413
412 424
413 412
413 414
413 419
413 424
414 413
414 415
414 423
414 424
415 414
415 416
415 417
415 424
416 411
416 415
416 417
416 421
417 415
417 416
417 418
417 424
418 409
418 417
418 419
418 424
419 413
419 418
419 420
419 424
420 419
420 421
420 422
420 424
421 411
421 416
421 420
421 422
422 420
422 421
422 423
422 424
423 414
423 422
423 424
423 472
424 328
424 409
424 410
424 412
424 413
424 414
424 415
424 417
424 418
424 419
424 420
424 422
424 423
424 713
425 426
425 434
425 440
425 643
426 425
426 427
426 428
426 440
427 426
427 428
427 432
427 437
428 426
428 427
428 429
428 440
429 428
429 430
429 435
429 440
430 429
430 431
430 439
430 440
431 430
431 432
431 433
431 440
432 427
432 431
432 433
432 437
433 431
433 432
433 434
433 440
434 425
434 433
434 435
434 440
435 429
435 434
435 436
435 440
436 435
436 437
436 438
436 440
437 427
437 432
437 436
437 438
438 436
438 437
438 439
438 440
439 359
439 430
439 438
439 440
440 329
440 425
440 426
440 428
440 429
440 430
440 431
440 433
440 434
440 435
440 436
440 438
440 439
440 558
441 442
441 450
441 456
441 729
442 441
442 443
442 444
442 456
443 442
443 444
443 448
443 453
444 442
444 443
444 445
444 456
445 444
445 446
445 451
445 456
446 445
446 447
446 455
446 456
447 446
447 448
447 449
447 456
448 443
448 447
448 449
448 453
449 447
449 448
449 450
449 456
450 441
450 449
450 451
450 456
451 445
451 450
451 452
451 456
452 451
452 453
452 454
452 456
453 443
453 448
453 452
453 454
454 452
454 453
454 455
454 456
455 408
455 446
455 454
455 456
456 376
456 392
456 441
456 442
456 444
456 445
456 446
456 447
456 449
456 450
456 451
456 452
456 454
456 455
457 458
457 466
457 472
457 644
458 457
458 459
458 460
458 472
459 458
459 460
459 464
459 469
460 458
460 459
460 461
460 472
461 460
461 462
461 467
461 472
462 461
462 463
462 471
462 472
463 462
463 464
463 465
463 472
464 459
464 463
464 465
464 469
465 463
465 464
465 466
465 472
466 457
466 465
466 467
466 472
467 461
467 466
467 468
467 472
468 467
468 469
468 470
468 472
469 459
469 464
469 468
469 470
470 468
470 469
470 471
470 472
471 360
471 462
471 470
471 472
472 423
472 457
472 458
472 460
472 461
472 462
472 463
472 465
472 466
472 467
472 468
472 470
472 471
472 558
473 475
473 477
473 492
473 493
474 476
474 493
474 542
474 558
475 473
475 477
475 494
475 509
476 474
476 510
476 526
476 558
477 473
477 475
477 524
477 525
478 479
478 487
478 493
478 541
479 478
479 480
479 481
479 493
480 479
480 481
480 485
480 490
481 479
481 480
481 482
481 493
482 481
482 483
482 488
482 493
483 482
483 484
483 492
483 493
484 483
484 485
484 486
484 493
485 480
485 484
485 486
485 490
486 484
486 485
486 487
486 493
487 478
487 486
487 488
487 493
488 482
488 487
488 489
488 493
489 488
489 490
489 491
489 493
490 480
490 485
490 489
490 491
491 489
491 490
491 492
491 493
492 473
492 483
492 491
492 493
493 473
493 474
493 478
493 479
493 481
493 482
493 483
493 484
493 486
493 487
493 488
493 489
493 491
493 492
494 475
494 495
494 503
494 509
495 494
495 496
495 497
495 509
496 495
496 497
496 501
496 506
497 495
497 496
497 498
497 509
498 497
498 499
498 504
498 509
499 498
499 500
499 508
499 509
500 499
500 501
500 502
500 509
501 496
501 500
501 502
501 506
502 500
502 501
502 503
502 509
503 494
503 502
503 504
503 509
504 498
504 503
504 505
504 509
505 504
505 506
505 507
505 509
506 496
506 501
506 505
506 507
507 505
507 506
507 508
507 509
508 499
508 507
508 509
508 540
509 475
509 494
509 495
509 497
509 498
509 499
509 500
509 502
509 503
509 504
509 505
509 507
509 508
509 556
510 476
510 511
510 519
510 525
511 510
511 512
511 513
511 525
512 511
512 513
512 517
512 522
513 511
513 512
513 514
513 525
514 513
514 515
514 520
514 525
515 514
515 516
515 524
515 525
516 515
516 517
516 518
516 525
517 512
517 516
517 518
517 522
518 516
518 517
518 519
518 525
519 510
519 518
519 520
519 525
520 514
520 519
520 521
520 525
521 520
521 522
521 523
521 525
522 512
522 517
522 521
522 523
523 521
523 522
523 524
523 525
524 477
524 515
524 523
524 525
525 477
525 510
525 511
525 513
525 514
525 515
525 516
525 518
525 519
525 520
525 521
525 523
525 524
525 557
526 476
526 527
526 535
526 541
527 526
527 528
527 529
527 541
528 527
528 529
528 533
528 538
529 527
529 528
529 530
529 541
530 529
530 531
530 536
530 541
531 530
531 532
531 540
531 541
532 531
532 533
532 534
532 541
533 528
533 532
533 534
533 538
534 532
534 533
534 535
534 541
535 526
535 534
535 536
535 541
536 530
536 535
536 537
536 541
537 536
537 538
537 539
537 541
538 528
538 533
538 537
538 539
539 537
539 538
539 540
539 541
540 508
540 531
540 539
540 541
541 478
541 526
541 527
541 529
541 530
541 531
541 532
541 534
541 535
541 536
541 537
541 539
541 540
541 730
542 474
542 543
542 551
542 557
543 542
543 544
543 545
543 557
544 543
544 545
544 549
544 554
545 543
545 544
545 546
545 557
546 545
546 547
546 552
546 557
547 546
547 548
547 556
547 557
548 547
548 549
548 550
548 557
549 544
549 548
549 550
549 554
550 548
550 549
550 551
550 557
551 542
551 550
551 552
551 557
552 546
552 551
552 553
552 557
553 552
553 554
553 555
553 557
554 544
554 549
554 553
554 555
555 553
555 554
555 556
555 557
556 509
556 547
556 555
556 557
557 393
557 525
557 542
557 543
557 545
557 546
557 547
557 548
557 550
557 551
557 552
557 553
557 555
557 556
558 440
558 472
558 474
558 476
559 561
559 563
559 578
559 579
560 562
560 579
560 628
560 644
561 559
561 563
561 580
561 595
562 560
562 596
562 612
562 644
563 559
563 561
563 610
563 611
564 565
564 573
564 579
564 627
565 564
565 566
565 567
565 579
566 565
566 567
566 571
566 576
567 565
567 566
567 568
567 579
568 567
568 569
568 574
568 579
569 568
569 570
569 578
569 579
570 569
570 571
570 572
570 579
571 566
571 570
571 572
571 576
572 570
572 571
572 573
572 579
573 564
573 572
573 574
573 579
574 568
574 573
574 575
574 579
575 574
575 576
575 577
575 579
576 566
576 571
576 575
576 577
577 575
577 576
577 578
577 579
578 559
578 569
578 577
578 579
579 559
579 560
579 564
579 565
579 567
579 568
579 569
579 570
579 572
579 573
579 574
579 575
579 577
579 578
580 561
580 581
580 589
580 595
581 580
581 582
581 583
581 595
582 581
582 583
582 587
582 592
583 581
583 582
583 584
583 595
584 583
584 585
584 590
584 595
585 584
585 586
585 594
585 595
586 585
586 587
586 588
586 595
587 582
587 586
587 588
587 592
588 586
588 587
588 589
588 595
589 580
589 588
589 590
589 595
590 584
590 589
590 591
590 595
591 590
591 592
591 593
591 595
592 582
592 587
592 591
592 593
593 591
593 592
593 594
593 595
594 585
594 593
594 595
594 626
595 561
595 580
595 581
595 583
595 584
595 585
595 586
595 588
595 589
595 590
595 591
595 593
595 594
595 642
596 562
596 597
596 605
596 611
597 596
597 598
597 599
597 611
598 597
598 599
598 603
598 608
599 597
599 598
599 600
599 611
600 599
600 601
600 606
600 611
601 600
601 602
601 610
601 611
602 601
602 603
602 604
602 611
603 598
603 602
603 604
603 608
604 602
604 603
604 605
604 611
605 596
605 604
605 606
605 611
606 600
606 605
606 607
606 611
607 606
607 608
607 609
607 611
608 598
608 603
608 607
608 609
609 607
609 608
609 610
609 611
610 563
610 601
610 609
610 611
611 563
611 596
611 597
611 599
611 600
611 601
611 602
611 604
611 605
611 606
611 607
611 609
611 610
611 643
612 562
612 613
612 621
612 627
613 612
613 614
613 615
613 627
614 613
614 615
614 619
614 624
615 613
615 614
615 616
615 627
616 615
616 617
616 622
616 627
617 616
617 618
617 626
617 627
618 617
618 619
618 620
618 627
619 614
619 618
619 620
619 624
620 618
620 619
620 621
620 627
621 612
621 620
621 622
621 627
622 616
622 621
622 623
622 627
623 622
623 624
623 625
623 627
624 614
624 619
624 623
624 625
625 623
625 624
625 626
625 627
626 594
626 617
626 625
626 627
627 361
627 564
627 612
627 613
627 615
627 616
627 617
627 618
627 620
627 621
627 622
627 623
627 625
627 626
628 560
628 629
628 637
628 643
629 628
629 630
629 631
629 643
630 629
630 631
630 635
630 640
631 629
631 630
631 632
631 643
632 631
632 633
632 638
632 643
633 632
633 634
633 642
633 643
634 633
634 635
634 636
634 643
635 630
635 634
635 636
635 640
636 634
636 635
636 637
636 643
637 628
637 636
637 638
637 643
638 632
638 637
638 639
638 643
639 638
639 640
639 641
639 643
640 630
640 635
640 639
640 641
641 639
641 640
641 642
641 643
642 595
642 633
642 641
642 643
643 425
643 611
643 628
643 629
643 631
643 632
643 633
643 634
643 636
643 637
643 638
643 639
643 641
643 642
644 344
644 457
644 560
644 562
645 647
645 649
645 664
645 665
646 648
646 665
646 714
646 730
647 645
647 649
647 666
647 681
648 646
648 682
648 698
648 730
649 645
649 647
649 696
649 697
650 651
650 659
650 665
650 713
651 650
651 652
651 653
651 665
652 651
652 653
652 657
652 662
653 651
653 652
653 654
653 665
654 653
654 655
654 660
654 665
655 654
655 656
655 664
655 665
656 655
656 657
656 658
656 665
657 652
657 656
657 658
657 662
658 656
658 657
658 659
658 665
659 650
659 658
659 660
659 665
660 654
660 659
660 661
660 665
661 660
661 662
661 663
661 665
662 652
662 657
662 661
662 663
663 661
663 662
663 664
663 665
664 645
664 655
664 663
664 665
665 645
665 646
665 650
665 651
665 653
665 654
665 655
665 656
665 658
665 659
665 660
665 661
665 663
665 664
666 647
666 667
666 675
666 681
667 666
667 668
667 669
667 681
668 667
668 669
668 673
668 678
669 667
669 668
669 670
669 681
670 669
670 671
670 676
670 681
671 670
671 672
671 680
671 681
672 671
672 673
672 674
672 681
673 668
673 672
673 674
673 678
674 672
674 673
674 675
674 681
675 666
675 674
675 676
675 681
676 670
676 675
676 677
676 681
677 676
677 678
677 679
677 681
678 668
678 673
678 677
678 679
679 677
679 678
679 680
679 681
680 671
680 679
680 681
680 712
681 647
681 666
681 667
681 669
681 670
681 671
681 672
681 674
681 675
681 676
681 677
681 679
681 680
681 728
682 648
682 683
682 691
682 697
683 682
683 684
683 685
683 697
684 683
684 685
684 689
684 694
685 683
685 684
685 686
685 697
686 685
686 687
686 692
686 697
687 686
687 688
687 696
687 697
688 687
688 689
688 690
688 697
689 684
689 688
689 690
689 694
690 688
690 689
690 691
690 697
691 682
691 690
691 692
691 697
692 686
692 691
692 693
692 697
693 692
693 694
693 695
693 697
694 684
694 689
694 693
694 695
695 693
695 694
695 696
695 697
696 649
696 687
696 695
696 697
697 649
697 682
697 683
697 685
697 686
697 687
697 688
697 690
697 691
697 692
697 693
697 695
697 696
697 729
698 648
698 699
698 707
698 713
699 698
699 700
699 701
699 713
700 699
700 701
700 705
700 710
701 699
701 700
701 702
701 713
702 701
702 703
702 708
702 713
703 702
703 704
703 712
703 713
704 703
704 705
704 706
704 713
705 700
705 704
705 706
705 710
706 704
706 705
706 707
706 713
707 698
707 706
707 708
707 713
708 702
708 707
708 709
708 713
709 708
709 710
709 711
709 713
710 700
710 705
710 709
710 711
711 709
711 710
711 712
711 713
712 680
712 703
712 711
712 713
713 424
713 650
713 698
713 699
713 701
713 702
713 703
713 704
713 706
713 707
713 708
713 709
713 711
713 712
714 646
714 715
714 723
714 729
715 714
715 716
715 717
715 729
716 715
716 717
716 721
716 726
717 715
717 716
717 718
717 729
718 717
718 719
718 724
718 729
719 718
719 720
719 728
719 729
720 719
720 721
720 722
720 729
721 716
721 720
721 722
721 726
722 720
722 721
722 723
722 729
723 714
723 722
723 724
723 729
724 718
724 723
724 725
724 729
725 724
725 726
725 727
725 729
726 716
726 721
726 725
726 727
727 725
727 726
727 728
727 729
728 681
728 719
728 727
728 729
729 441
729 697
729 714
729 715
729 717
729 718
729 719
729 720
729 722
729 723
729 724
729 725
729 727
729 728
730 391
730 541
730 646
730 648
731 69
731 219
731 323
731 343
-1
EOF